Branch and Bound/tsp-small.tsp
NAME: tsp-small.tsp
COMMENT: yourname(s). 6 vertices. Note that vertex 1 is at (1, 5); vertex 2 is at (3, 7), etc.
TYPE: TSP
DIMENSION: 6
EDGE_WEIGHT_TYPE: EUC_2D
NODE_COORD_SECTION
1 1 5 
2 3 7 
3 5 9 
4 3 5 
5 5 7 
6 7 9 
EOF