Branch and Bound/tsp-small.tour
NAME: tsp-small.tour
TYPE: TOUR
DIMENSION: 6
TOUR_SECTION
1 1 5
4 3 5
2 3 7
5 5 7
3 5 9
6 7 9
-1